p cnf 468 466
1 0
2 0
3 0
4 0
5 0
6 0
7 0
8 0
9 0
10 0
11 0
12 0
13 0
14 0
15 0
16 0
17 0
18 0
19 0
20 0
21 0
22 0
23 0
24 0
25 0
26 0
27 0
28 0
29 0
30 0
31 0
32 0
33 0
34 0
35 0
36 0
37 0
38 0
39 0
40 0
41 0
42 0
43 0
44 0
45 0
46 0
47 0
48 0
49 0
50 0
51 0
52 0
53 0
54 0
55 0
56 0
57 0
58 0
59 0
60 0
61 0
62 0
63 0
64 0
65 0
66 0
67 0
68 0
69 0
70 0
71 0
72 0
73 0
74 0
75 0
76 0
77 0
78 0
79 0
80 0
81 0
82 0
83 0
84 0
85 0
86 0
87 0
88 0
89 0
90 0
91 0
92 0
93 0
94 0
95 0
96 0
97 0
98 0
99 0
100 0
101 0
102 0
103 0
104 0
105 0
106 0
107 0
108 0
109 0
110 0
111 0
112 0
113 0
114 0
115 0
116 0
117 0
118 0
119 0
120 0
121 0
122 0
123 0
124 0
125 0
126 0
127 0
128 0
129 0
130 0
131 0
132 0
133 0
134 0
135 0
136 0
137 0
138 0
139 0
140 0
141 0
142 0
143 0
144 0
145 0
146 0
147 0
148 0
149 0
150 0
151 0
152 0
153 0
154 0
155 0
156 0
157 0
158 0
159 0
160 0
161 0
162 0
163 0
164 0
165 0
166 0
167 0
168 0
169 0
170 0
171 0
172 0
173 0
174 0
175 0
176 0
177 0
178 0
179 0
180 0
181 0
182 0
183 0
184 0
185 0
186 0
187 0
188 0
189 0
190 0
191 0
192 0
193 0
194 0
195 0
196 0
197 0
198 0
199 0
200 0
201 0
202 0
203 0
204 0
205 0
206 0
207 0
208 0
209 0
210 0
211 0
212 0
213 0
214 0
215 0
216 0
217 0
218 0
219 0
220 0
221 0
222 0
223 0
224 0
225 0
226 0
227 0
228 0
229 0
230 0
231 0
232 0
233 0
234 0
235 0
236 0
237 0
238 0
239 0
240 0
241 0
242 0
243 0
244 0
245 0
246 0
247 0
248 0
249 0
250 0
251 0
252 0
253 0
254 0
255 0
256 0
257 0
258 0
259 0
260 0
261 0
262 0
263 0
264 0
265 0
266 0
267 0
268 0
269 0
270 0
271 0
272 0
273 0
274 0
275 0
276 0
277 0
278 0
279 0
280 0
281 0
282 0
283 0
284 0
285 0
286 0
287 0
288 0
289 0
290 0
291 0
292 0
293 0
294 0
295 0
296 0
297 0
298 0
299 0
300 0
301 0
302 0
303 0
304 0
305 0
306 0
307 0
308 0
309 0
310 0
311 0
312 0
313 0
314 0
315 0
316 0
317 0
318 0
319 0
320 0
321 0
322 0
323 0
324 0
325 0
326 0
327 0
328 0
329 0
330 0
331 0
332 0
333 0
334 0
335 0
336 0
337 0
338 0
339 0
340 0
341 0
342 0
343 0
344 0
345 0
346 0
347 0
348 0
349 0
350 0
351 0
352 0
353 0
354 0
355 0
356 0
357 0
358 0
359 0
360 0
361 0
362 0
363 0
364 0
365 0
366 0
367 0
368 0
369 0
370 0
371 0
372 0
373 0
374 0
375 0
376 0
377 0
378 0
379 0
380 0
381 0
382 0
383 0
384 0
385 0
386 0
387 0
388 0
389 0
390 0
391 0
392 0
393 0
394 0
395 0
396 0
397 0
398 0
399 0
400 0
401 0
402 0
403 0
404 0
405 0
406 0
407 0
408 0
409 0
410 0
411 0
412 0
413 0
414 0
415 0
416 0
417 0
418 0
419 0
420 0
421 0
422 0
423 0
424 0
425 0
426 0
427 0
428 0
429 0
430 0
431 0
432 0
433 0
434 0
435 0
436 0
437 0
438 0
439 0
440 0
441 0
442 0
443 0
444 0
445 0
446 0
447 0
448 0
449 0
450 0
451 0
452 0
453 0
454 0
455 0
456 0
457 0
458 0
459 0
460 0
461 0
462 0
-463 464 0
-465 466 0
-463 467 0
-465 468 0
c 463 m_0_1_w0_p0
c 465 m_0_2_w0_p0
c 466 m_1_3_w0_p1
c 468 m_1_3_w1_p0
c 464 m_2_3_w0_p1
c 467 m_2_3_w1_p0
c 1 pbeq
c 2 pbeq
c 3 pbeq
c 4 pbeq
c 5 pbeq
c 6 pbeq
c 7 pbeq
c 8 pbeq
c 9 pbeq
c 10 pbeq
c 11 pbeq
c 12 pbeq
c 13 pbeq
c 14 pbeq
c 15 pbeq
c 16 pbeq
c 17 pbeq
c 18 pbeq
c 19 pbeq
c 20 pbeq
c 21 pbeq
c 22 pbeq
c 23 pbeq
c 24 pbeq
c 25 pbeq
c 26 pbeq
c 27 pbeq
c 28 pbeq
c 29 pbeq
c 30 pbeq
c 31 pbeq
c 32 pbeq
c 33 pbeq
c 34 pbeq
c 35 pbeq
c 36 pbeq
c 37 pbeq
c 38 pbeq
c 39 pbeq
c 40 pbeq
c 41 pbeq
c 42 pbeq
c 43 pbeq
c 44 pbeq
c 45 pbeq
c 46 pbeq
c 47 pbeq
c 48 pbeq
c 49 pbeq
c 50 pbeq
c 51 pbeq
c 52 pbeq
c 53 pbeq
c 54 pbeq
c 55 pbeq
c 56 pbeq
c 57 pbeq
c 58 pbeq
c 59 pbeq
c 60 pbeq
c 61 pbeq
c 62 pbeq
c 63 pbeq
c 64 pbeq
c 65 pbeq
c 66 pbeq
c 67 pbeq
c 68 pbeq
c 69 pbeq
c 70 pbeq
c 71 pbeq
c 72 pbeq
c 73 pbeq
c 74 pbeq
c 75 pbeq
c 76 pbeq
c 77 pbeq
c 78 pbeq
c 79 pbeq
c 80 pbeq
c 81 pbeq
c 82 pbeq
c 83 pbeq
c 84 pbeq
c 85 pbeq
c 86 pbeq
c 87 pbeq
c 88 pbeq
c 89 pbeq
c 90 pbeq
c 91 pbeq
c 92 pbeq
c 93 pbeq
c 94 pbeq
c 95 pbeq
c 96 pbeq
c 97 pbeq
c 98 pbeq
c 99 pbeq
c 100 pbeq
c 101 pbeq
c 102 pbeq
c 103 pbeq
c 104 pbeq
c 105 pbeq
c 106 pbeq
c 107 pbeq
c 108 pbeq
c 109 pbeq
c 110 pbeq
c 111 pbeq
c 112 pbeq
c 113 pbeq
c 114 pbeq
c 115 pbeq
c 116 pbeq
c 117 pbeq
c 118 pbeq
c 119 pbeq
c 120 pbeq
c 121 pbeq
c 122 pbeq
c 123 pbeq
c 124 pbeq
c 125 pbeq
c 126 pbeq
c 127 pbeq
c 128 pbeq
c 129 pbeq
c 130 pbeq
c 131 pbeq
c 132 pbeq
c 133 pbeq
c 134 pbeq
c 135 pbeq
c 136 pbeq
c 137 pbeq
c 138 pbeq
c 139 pbeq
c 140 pbeq
c 141 pbeq
c 142 pbeq
c 143 pbeq
c 144 pbeq
c 145 pbeq
c 146 pbeq
c 147 pbeq
c 148 pbeq
c 149 pbeq
c 150 pbeq
c 151 pbeq
c 152 pbeq
c 153 pbeq
c 154 pbeq
c 155 pbeq
c 156 pbeq
c 157 pbeq
c 158 pbeq
c 159 pbeq
c 160 pbeq
c 161 pbeq
c 162 pbeq
c 163 pbeq
c 164 pbeq
c 165 pbeq
c 166 pbeq
c 167 pbeq
c 168 pbeq
c 169 pbeq
c 170 pbeq
c 171 pbeq
c 172 pbeq
c 173 pbeq
c 174 pbeq
c 175 pbeq
c 176 pbeq
c 177 pbeq
c 178 pbeq
c 179 pbeq
c 180 pbeq
c 181 pbeq
c 182 pbeq
c 183 pbeq
c 184 pbeq
c 185 pbeq
c 186 pbeq
c 187 pbeq
c 188 pbeq
c 189 pbeq
c 190 pbeq
c 191 pbeq
c 192 pbeq
c 193 pbeq
c 194 pbeq
c 195 pbeq
c 196 pbeq
c 197 pbeq
c 198 pbeq
c 199 pbeq
c 200 pbeq
c 201 pbeq
c 202 pbeq
c 203 pbeq
c 204 pbeq
c 205 pbeq
c 206 pbeq
c 207 pbeq
c 208 pbeq
c 209 pbeq
c 210 pbeq
c 211 pbeq
c 212 pbeq
c 213 pbeq
c 214 pbeq
c 215 pbeq
c 216 pbeq
c 217 pbeq
c 218 pbeq
c 219 pbeq
c 220 pbeq
c 221 pbeq
c 222 pbeq
c 223 pbeq
c 224 pbeq
c 225 pbeq
c 226 pbeq
c 227 pbeq
c 228 pbeq
c 229 pbeq
c 230 pbeq
c 231 pbeq
c 232 pbeq
c 233 pbeq
c 234 pbeq
c 235 pbeq
c 236 pbeq
c 237 pbeq
c 238 pbeq
c 239 pbeq
c 240 pbeq
c 241 pbeq
c 242 pbeq
c 243 pbeq
c 244 pbeq
c 245 pbeq
c 246 pbeq
c 247 pbeq
c 248 pbeq
c 249 pbeq
c 250 pbeq
c 251 pbeq
c 252 pbeq
c 253 pbeq
c 254 pbeq
c 255 pbeq
c 256 pbeq
c 257 pbeq
c 258 pbeq
c 259 pbeq
c 260 pbeq
c 261 pbeq
c 262 pbeq
c 263 pbeq
c 264 pbeq
c 265 pbeq
c 266 pbeq
c 267 pbeq
c 268 pbeq
c 269 pbeq
c 270 pbeq
c 271 pbeq
c 272 pbeq
c 273 pbeq
c 274 pbeq
c 275 pbeq
c 276 pbeq
c 277 pbeq
c 278 pbeq
c 279 pbeq
c 280 pbeq
c 281 pbeq
c 282 pbeq
c 283 pbeq
c 284 pbeq
c 285 pbeq
c 286 pbeq
c 287 pbeq
c 288 pbeq
c 289 pbeq
c 290 pbeq
c 291 pbeq
c 292 pbeq
c 293 pbeq
c 294 pbeq
c 295 pbeq
c 296 pbeq
c 297 pbeq
c 298 pbeq
c 299 pbeq
c 300 pbeq
c 301 pbeq
c 302 pbeq
c 303 pbeq
c 304 pbeq
c 305 pbeq
c 306 pbeq
c 307 pbeq
c 308 pbeq
c 309 pbeq
c 310 pbeq
c 311 pbeq
c 312 pbeq
c 313 pbeq
c 314 pbeq
c 315 pbeq
c 316 pbeq
c 317 pbeq
c 318 pbeq
c 319 pbeq
c 320 pbeq
c 321 pbeq
c 322 pbeq
c 323 pbeq
c 324 pbeq
c 325 pbeq
c 326 pbeq
c 327 pbeq
c 328 pbeq
c 329 pbeq
c 330 pbeq
c 331 pbeq
c 332 pbeq
c 333 pbeq
c 334 pbeq
c 335 pbeq
c 336 pbeq
c 337 pbeq
c 338 pbeq
c 339 pbeq
c 340 pbeq
c 341 pbeq
c 342 pbeq
c 343 pbeq
c 344 pbeq
c 345 pbeq
c 346 pbeq
c 347 pbeq
c 348 pbeq
c 349 pbeq
c 350 pbeq
c 351 pbeq
c 352 pbeq
c 353 pbeq
c 354 pbeq
c 355 pbeq
c 356 pbeq
c 357 pbeq
c 358 pbeq
c 359 pbeq
c 360 pbeq
c 361 pbeq
c 362 pbeq
c 363 pbeq
c 364 pbeq
c 365 at-most
c 366 at-most
c 367 at-most
c 368 at-most
c 369 at-most
c 370 at-most
c 371 at-most
c 372 at-most
c 373 at-most
c 374 at-most
c 375 at-most
c 376 at-most
c 377 at-most
c 378 at-most
c 379 at-most
c 380 at-most
c 381 at-most
c 382 at-most
c 383 at-most
c 384 at-most
c 385 at-most
c 386 at-most
c 387 at-most
c 388 at-most
c 389 at-most
c 390 at-most
c 391 at-most
c 392 at-most
c 393 at-most
c 394 at-most
c 395 at-most
c 396 at-most
c 397 at-most
c 398 at-most
c 399 at-most
c 400 at-most
c 401 at-most
c 402 at-most
c 403 at-most
c 404 at-most
c 405 at-most
c 406 at-most
c 407 at-most
c 408 at-most
c 409 at-most
c 410 at-most
c 411 at-most
c 412 at-most
c 413 at-most
c 414 at-most
c 415 at-most
c 416 at-most
c 417 at-most
c 418 at-most
c 419 at-most
c 420 at-most
c 421 at-most
c 422 at-most
c 423 at-most
c 424 at-most
c 425 at-most
c 426 at-most
c 427 at-most
c 428 at-most
c 429 at-most
c 430 at-most
c 431 at-most
c 432 at-most
c 433 at-most
c 434 at-most
c 435 at-most
c 436 at-most
c 437 at-most
c 438 at-most
c 439 at-most
c 440 at-most
c 441 at-most
c 442 at-most
c 443 at-most
c 444 at-most
c 445 at-most
c 446 at-most
c 447 at-most
c 448 at-most
c 449 at-most
c 450 at-most
c 451 at-most
c 452 at-most
c 453 at-most
c 454 at-most
c 455 at-most
c 456 at-most
c 457 at-most
c 458 at-most
c 459 at-most
c 460 at-most
c 461 at-most
c 462 at-most
